param L := 123;

set MODULI := M1 M2 M3 M4 M5 M6 M7 M8 M9 M10 ;

param d :=
  M1 10
  M2 5
  M3 7
  M4 7
  M5 8
  M6 7
  M7 7
  M8 1
  M9 3
  M10 5
;

param l :=
  M1 30
  M2 24
  M3 18
  M4 41
  M5 12
  M6 21
  M7 35
  M8 26
  M9 22
  M10 13
;
